Route #1: 13 140 103 69 48 145 64 38 53 16 91 109
Route #2: 18 138 45 93 43 94 66 108 46 92 73 34 125 124 72 55 11
Route #3: 33 52 23 102 4 60 21 132 84 3 101 12
Route #4: 47 58 24 70 8 62 115 100 44 87 98 25 97 59 15
Route #5: 50 63 10 131 51 35 75 80 22 119 128 17 127
Route #6: 56 19 111 134 96 26 133 99 7
Route #7: 57 112 67 42 95 20 65 89 41 137 14 68 135
Route #8: 81 71 29 117 122 116 37 86 36 85 129 30 130 54
Route #9: 104 6 77 39 79 78
Route #10: 105 31 106 76 40 90 118 74 107 126 123
Route #11: 120 2 121 83 32 141 114 27 9 61 113 49 139 82 28
Route #12: 146 148 143 88 149 151 142 136 144 110 150 5 147
cost 1084